region region   block 0 10 0 10 0 10 units box
create_box 1    region
create_atoms    1 random 10000 123456 region
mass            1 1

neighbor        0.0 bin
neigh_modify    delay 0 every 1 check no binsize 1
comm_modify     vel yes

pair_style	dpd 0.5 1 928948
pair_coeff	1 1    4 30 1
fix		nve  all  nve
timestep        0.1
run             1000
